c strEdges: 189  randomEdges: 441 
c degrees:  2  3 
c girth: 10 max: 8.032766  
c Hgirth mixed MAXCUT instance
c generated from an undirected graph
c to solve unweighted MaxCut
p cnf 140 1260
23 37 0
-23 -37 0
23 14 0
-23 -14 0
23 61 0
-23 -61 0
115 43 0
-115 -43 0
115 124 0
-115 -124 0
115 74 0
-115 -74 0
71 32 0
-71 -32 0
71 133 0
-71 -133 0
71 64 0
-71 -64 0
119 48 0
-119 -48 0
119 55 0
-119 -55 0
119 60 0
-119 -60 0
58 47 0
-58 -47 0
58 84 0
-58 -84 0
9 26 0
-9 -26 0
9 136 0
-9 -136 0
9 60 0
-9 -60 0
91 14 0
-91 -14 0
91 130 0
-91 -130 0
91 110 0
-91 -110 0
127 102 0
-127 -102 0
127 46 0
-127 -46 0
127 37 0
-127 -37 0
134 114 0
-134 -114 0
134 139 0
-134 -139 0
134 36 0
-134 -36 0
65 123 0
-65 -123 0
65 120 0
-65 -120 0
29 140 0
-29 -140 0
29 106 0
-29 -106 0
29 95 0
-29 -95 0
34 116 0
-34 -116 0
34 112 0
-34 -112 0
28 72 0
-28 -72 0
28 128 0
-28 -128 0
28 98 0
-28 -98 0
93 81 0
-93 -81 0
93 31 0
-93 -31 0
93 33 0
-93 -33 0
118 117 0
-118 -117 0
118 40 0
-118 -40 0
5 6 0
-5 -6 0
5 131 0
-5 -131 0
5 70 0
-5 -70 0
99 84 0
-99 -84 0
99 33 0
-99 -33 0
99 46 0
-99 -46 0
12 104 0
-12 -104 0
12 18 0
-12 -18 0
12 82 0
-12 -82 0
111 52 0
-111 -52 0
111 47 0
-111 -47 0
111 55 0
-111 -55 0
94 112 0
-94 -112 0
94 47 0
-94 -47 0
94 128 0
-94 -128 0
109 78 0
-109 -78 0
109 131 0
-109 -131 0
19 61 0
-19 -61 0
19 52 0
-19 -52 0
19 89 0
-19 -89 0
90 54 0
-90 -54 0
90 89 0
-90 -89 0
17 110 0
-17 -110 0
17 108 0
-17 -108 0
17 129 0
-17 -129 0
113 97 0
-113 -97 0
113 104 0
-113 -104 0
113 116 0
-113 -116 0
25 41 0
-25 -41 0
25 35 0
-25 -35 0
25 48 0
-25 -48 0
75 79 0
-75 -79 0
75 43 0
-75 -43 0
88 18 0
-88 -18 0
88 137 0
-88 -137 0
88 59 0
-88 -59 0
53 77 0
-53 -77 0
53 30 0
-53 -30 0
53 8 0
-53 -8 0
56 100 0
-56 -100 0
56 133 0
-56 -133 0
7 130 0
-7 -130 0
7 123 0
-7 -123 0
7 112 0
-7 -112 0
15 36 0
-15 -36 0
15 100 0
-15 -100 0
15 84 0
-15 -84 0
135 30 0
-135 -30 0
135 107 0
-135 -107 0
135 78 0
-135 -78 0
27 124 0
-27 -124 0
27 116 0
-27 -116 0
4 60 0
-4 -60 0
4 98 0
-4 -98 0
4 137 0
-4 -137 0
122 133 0
-122 -133 0
122 61 0
-122 -61 0
122 41 0
-122 -41 0
126 46 0
-126 -46 0
126 59 0
-126 -59 0
21 74 0
-21 -74 0
21 102 0
-21 -102 0
21 6 0
-21 -6 0
105 33 0
-105 -33 0
105 106 0
-105 -106 0
105 32 0
-105 -32 0
73 121 0
-73 -121 0
73 80 0
-73 -80 0
68 55 0
-68 -55 0
68 97 0
-68 -97 0
68 32 0
-68 -32 0
63 59 0
-63 -59 0
63 117 0
-63 -117 0
63 41 0
-63 -41 0
3 70 0
-3 -70 0
3 125 0
-3 -125 0
3 139 0
-3 -139 0
16 107 0
-16 -107 0
16 114 0
-16 -114 0
16 130 0
-16 -130 0
20 108 0
-20 -108 0
20 48 0
-20 -48 0
62 125 0
-62 -125 0
62 64 0
-62 -64 0
62 72 0
-62 -72 0
103 45 0
-103 -45 0
103 35 0
-103 -35 0
103 78 0
-103 -78 0
86 40 0
-86 -40 0
86 8 0
-86 -8 0
86 31 0
-86 -31 0
92 98 0
-92 -98 0
92 45 0
-92 -45 0
92 54 0
-92 -54 0
2 8 0
-2 -8 0
2 132 0
-2 -132 0
2 37 0
-2 -37 0
1 136 0
-1 -136 0
1 43 0
-1 -43 0
13 129 0
-13 -129 0
13 85 0
-13 -85 0
13 81 0
-13 -81 0
38 82 0
-38 -82 0
38 140 0
-38 -140 0
101 35 0
-101 -35 0
101 81 0
-101 -81 0
51 10 0
-51 -10 0
51 42 0
-51 -42 0
50 95 0
-50 -95 0
50 10 0
-50 -10 0
50 108 0
-50 -108 0
44 106 0
-44 -106 0
44 54 0
-44 -54 0
44 120 0
-44 -120 0
24 42 0
-24 -42 0
24 74 0
-24 -74 0
66 137 0
-66 -137 0
66 79 0
-66 -79 0
66 129 0
-66 -129 0
138 131 0
-138 -131 0
138 82 0
-138 -82 0
67 132 0
-67 -132 0
67 85 0
-67 -85 0
67 121 0
-67 -121 0
22 139 0
-22 -139 0
22 26 0
-22 -26 0
22 117 0
-22 -117 0
39 85 0
-39 -85 0
39 52 0
-39 -52 0
11 80 0
-11 -80 0
11 100 0
-11 -100 0
11 42 0
-11 -42 0
69 31 0
-69 -31 0
69 136 0
-69 -136 0
96 120 0
-96 -120 0
96 70 0
-96 -70 0
96 121 0
-96 -121 0
49 128 0
-49 -128 0
49 57 0
-49 -57 0
49 80 0
-49 -80 0
87 64 0
-87 -64 0
87 79 0
-87 -79 0
76 57 0
-76 -57 0
76 40 0
-76 -40 0
76 95 0
-76 -95 0
83 89 0
-83 -89 0
83 77 0
-83 -77 0
83 124 0
-83 -124 0
111 136 0
-111 -136 0
37 117 0
-37 -117 0
8 31 0
-8 -31 0
51 97 0
-51 -97 0
124 80 0
-124 -80 0
74 31 0
-74 -31 0
94 138 0
-94 -138 0
19 104 0
-19 -104 0
63 140 0
-63 -140 0
12 17 0
-12 -17 0
119 59 0
-119 -59 0
118 43 0
-118 -43 0
112 100 0
-112 -100 0
122 35 0
-122 -35 0
81 121 0
-81 -121 0
123 136 0
-123 -136 0
38 45 0
-38 -45 0
50 80 0
-50 -80 0
17 85 0
-17 -85 0
70 42 0
-70 -42 0
56 79 0
-56 -79 0
47 129 0
-47 -129 0
39 117 0
-39 -117 0
69 55 0
-69 -55 0
102 64 0
-102 -64 0
92 129 0
-92 -129 0
127 22 0
-127 -22 0
51 106 0
-51 -106 0
130 129 0
-130 -129 0
7 128 0
-7 -128 0
114 121 0
-114 -121 0
104 136 0
-104 -136 0
88 86 0
-88 -86 0
1 37 0
-1 -37 0
29 103 0
-29 -103 0
47 64 0
-47 -64 0
127 66 0
-127 -66 0
8 129 0
-8 -129 0
115 24 0
-115 -24 0
94 41 0
-94 -41 0
19 79 0
-19 -79 0
87 31 0
-87 -31 0
110 60 0
-110 -60 0
46 128 0
-46 -128 0
84 125 0
-84 -125 0
96 108 0
-96 -108 0
119 29 0
-119 -29 0
15 105 0
-15 -105 0
52 110 0
-52 -110 0
94 75 0
-94 -75 0
86 47 0
-86 -47 0
50 96 0
-50 -96 0
44 32 0
-44 -32 0
77 131 0
-77 -131 0
87 54 0
-87 -54 0
40 136 0
-40 -136 0
41 70 0
-41 -70 0
45 129 0
-45 -129 0
41 125 0
-41 -125 0
116 81 0
-116 -81 0
113 20 0
-113 -20 0
13 123 0
-13 -123 0
90 30 0
-90 -30 0
47 107 0
-47 -107 0
116 10 0
-116 -10 0
38 80 0
-38 -80 0
138 55 0
-138 -55 0
87 114 0
-87 -114 0
13 44 0
-13 -44 0
49 36 0
-49 -36 0
29 59 0
-29 -59 0
78 100 0
-78 -100 0
50 41 0
-50 -41 0
56 121 0
-56 -121 0
23 118 0
-23 -118 0
65 19 0
-65 -19 0
34 30 0
-34 -30 0
45 31 0
-45 -31 0
81 137 0
-81 -137 0
43 61 0
-43 -61 0
105 85 0
-105 -85 0
131 64 0
-131 -64 0
94 20 0
-94 -20 0
27 16 0
-27 -16 0
4 52 0
-4 -52 0
36 98 0
-36 -98 0
115 2 0
-115 -2 0
109 116 0
-109 -116 0
91 77 0
-91 -77 0
15 40 0
-15 -40 0
109 126 0
-109 -126 0
99 26 0
-99 -26 0
39 130 0
-39 -130 0
7 64 0
-7 -64 0
137 80 0
-137 -80 0
51 104 0
-51 -104 0
36 55 0
-36 -55 0
3 87 0
-3 -87 0
32 128 0
-32 -128 0
119 7 0
-119 -7 0
55 129 0
-55 -129 0
75 66 0
-75 -66 0
111 124 0
-111 -124 0
67 100 0
-67 -100 0
43 8 0
-43 -8 0
133 46 0
-133 -46 0
46 57 0
-46 -57 0
58 135 0
-58 -135 0
92 64 0
-92 -64 0
118 78 0
-118 -78 0
91 20 0
-91 -20 0
20 55 0
-20 -55 0
14 137 0
-14 -137 0
71 14 0
-71 -14 0
5 56 0
-5 -56 0
12 103 0
-12 -103 0
63 139 0
-63 -139 0
1 132 0
-1 -132 0
126 31 0
-126 -31 0
51 117 0
-51 -117 0
100 107 0
-100 -107 0
41 137 0
-41 -137 0
122 81 0
-122 -81 0
73 40 0
-73 -40 0
125 45 0
-125 -45 0
12 123 0
-12 -123 0
14 57 0
-14 -57 0
21 73 0
-21 -73 0
134 101 0
-134 -101 0
32 97 0
-32 -97 0
65 73 0
-65 -73 0
101 55 0
-101 -55 0
3 100 0
-3 -100 0
7 49 0
-7 -49 0
86 132 0
-86 -132 0
40 80 0
-40 -80 0
87 89 0
-87 -89 0
4 140 0
-4 -140 0
101 39 0
-101 -39 0
34 133 0
-34 -133 0
88 56 0
-88 -56 0
96 104 0
-96 -104 0
28 21 0
-28 -21 0
53 24 0
-53 -24 0
105 80 0
-105 -80 0
21 137 0
-21 -137 0
100 55 0
-100 -55 0
132 128 0
-132 -128 0
25 122 0
-25 -122 0
15 132 0
-15 -132 0
131 89 0
-131 -89 0
119 124 0
-119 -124 0
126 18 0
-126 -18 0
18 128 0
-18 -128 0
43 131 0
-43 -131 0
26 89 0
-26 -89 0
1 67 0
-1 -67 0
75 52 0
-75 -52 0
114 30 0
-114 -30 0
23 140 0
-23 -140 0
102 57 0
-102 -57 0
91 55 0
-91 -55 0
21 18 0
-21 -18 0
105 76 0
-105 -76 0
114 112 0
-114 -112 0
65 62 0
-65 -62 0
118 97 0
-118 -97 0
24 108 0
-24 -108 0
111 131 0
-111 -131 0
23 3 0
-23 -3 0
107 80 0
-107 -80 0
71 127 0
-71 -127 0
1 107 0
-1 -107 0
25 22 0
-25 -22 0
90 11 0
-90 -11 0
127 17 0
-127 -17 0
11 61 0
-11 -61 0
25 88 0
-25 -88 0
38 43 0
-38 -43 0
25 32 0
-25 -32 0
37 46 0
-37 -46 0
34 18 0
-34 -18 0
27 42 0
-27 -42 0
2 51 0
-2 -51 0
62 95 0
-62 -95 0
93 24 0
-93 -24 0
43 52 0
-43 -52 0
111 1 0
-111 -1 0
28 139 0
-28 -139 0
75 32 0
-75 -32 0
5 101 0
-5 -101 0
76 48 0
-76 -48 0
90 16 0
-90 -16 0
15 86 0
-15 -86 0
58 8 0
-58 -8 0
66 112 0
-66 -112 0
4 89 0
-4 -89 0
112 124 0
-112 -124 0
63 3 0
-63 -3 0
111 50 0
-111 -50 0
130 8 0
-130 -8 0
63 16 0
-63 -16 0
121 95 0
-121 -95 0
19 17 0
-19 -17 0
32 10 0
-32 -10 0
27 137 0
-27 -137 0
58 43 0
-58 -43 0
38 138 0
-38 -138 0
23 54 0
-23 -54 0
115 133 0
-115 -133 0
71 57 0
-71 -57 0
5 53 0
-5 -53 0
21 114 0
-21 -114 0
111 105 0
-111 -105 0
109 55 0
-109 -55 0
60 80 0
-60 -80 0
115 19 0
-115 -19 0
50 98 0
-50 -98 0
63 82 0
-63 -82 0
119 107 0
-119 -107 0
65 139 0
-65 -139 0
19 106 0
-19 -106 0
5 14 0
-5 -14 0
25 26 0
-25 -26 0
94 116 0
-94 -116 0
38 117 0
-38 -117 0
66 96 0
-66 -96 0
2 125 0
-2 -125 0
68 36 0
-68 -36 0
84 10 0
-84 -10 0
69 47 0
-69 -47 0
46 136 0
-46 -136 0
117 31 0
-117 -31 0
134 32 0
-134 -32 0
34 59 0
-34 -59 0
115 41 0
-115 -41 0
73 84 0
-73 -84 0
100 129 0
-100 -129 0
29 133 0
-29 -133 0
86 18 0
-86 -18 0
38 60 0
-38 -60 0
92 120 0
-92 -120 0
45 8 0
-45 -8 0
61 8 0
-61 -8 0
65 87 0
-65 -87 0
115 104 0
-115 -104 0
127 11 0
-127 -11 0
9 31 0
-9 -31 0
71 88 0
-71 -88 0
13 76 0
-13 -76 0
5 92 0
-5 -92 0
140 106 0
-140 -106 0
109 133 0
-109 -133 0
62 97 0
-62 -97 0
5 75 0
-5 -75 0
50 55 0
-50 -55 0
103 97 0
-103 -97 0
29 112 0
-29 -112 0
109 105 0
-109 -105 0
60 82 0
-60 -82 0
111 117 0
-111 -117 0
84 57 0
-84 -57 0
22 47 0
-22 -47 0
86 78 0
-86 -78 0
97 98 0
-97 -98 0
92 61 0
-92 -61 0
62 129 0
-62 -129 0
83 54 0
-83 -54 0
63 32 0
-63 -32 0
135 136 0
-135 -136 0
39 48 0
-39 -48 0
113 35 0
-113 -35 0
96 100 0
-96 -100 0
4 2 0
-4 -2 0
82 137 0
-82 -137 0
18 124 0
-18 -124 0
94 103 0
-94 -103 0
96 43 0
-96 -43 0
93 7 0
-93 -7 0
37 47 0
-37 -47 0
14 110 0
-14 -110 0
3 120 0
-3 -120 0
76 77 0
-76 -77 0
74 107 0
-74 -107 0
94 95 0
-94 -95 0
67 137 0
-67 -137 0
67 57 0
-67 -57 0
100 95 0
-100 -95 0
58 87 0
-58 -87 0
51 18 0
-51 -18 0
66 39 0
-66 -39 0
11 59 0
-11 -59 0
53 38 0
-53 -38 0
37 42 0
-37 -42 0
93 136 0
-93 -136 0
117 132 0
-117 -132 0
108 129 0
-108 -129 0
119 133 0
-119 -133 0
24 54 0
-24 -54 0
19 98 0
-19 -98 0
105 37 0
-105 -37 0
92 10 0
-92 -10 0
123 100 0
-123 -100 0
12 94 0
-12 -94 0
100 98 0
-100 -98 0
12 3 0
-12 -3 0
15 121 0
-15 -121 0
93 84 0
-93 -84 0
71 129 0
-71 -129 0
114 72 0
-114 -72 0
140 36 0
-140 -36 0
81 35 0
-81 -35 0
126 112 0
-126 -112 0
17 122 0
-17 -122 0
116 55 0
-116 -55 0
75 46 0
-75 -46 0
34 81 0
-34 -81 0
111 109 0
-111 -109 0
53 73 0
-53 -73 0
24 22 0
-24 -22 0
48 107 0
-48 -107 0
5 90 0
-5 -90 0
75 82 0
-75 -82 0
140 133 0
-140 -133 0
35 131 0
-35 -131 0
71 140 0
-71 -140 0
115 45 0
-115 -45 0
112 131 0
-112 -131 0
98 82 0
-98 -82 0
17 21 0
-17 -21 0
104 97 0
-104 -97 0
73 59 0
-73 -59 0
96 130 0
-96 -130 0
84 132 0
-84 -132 0
53 86 0
-53 -86 0
76 132 0
-76 -132 0
17 132 0
-17 -132 0
62 33 0
-62 -33 0
53 98 0
-53 -98 0
129 42 0
-129 -42 0
92 6 0
-92 -6 0
26 85 0
-26 -85 0
135 102 0
-135 -102 0
114 117 0
-114 -117 0
91 93 0
-91 -93 0
20 41 0
-20 -41 0
119 30 0
-119 -30 0
109 39 0
-109 -39 0
58 51 0
-58 -51 0
100 136 0
-100 -136 0
16 33 0
-16 -33 0
101 120 0
-101 -120 0
15 92 0
-15 -92 0
2 128 0
-2 -128 0
83 31 0
-83 -31 0
132 120 0
-132 -120 0
76 45 0
-76 -45 0
118 33 0
-118 -33 0
36 106 0
-36 -106 0
76 121 0
-76 -121 0
122 48 0
-122 -48 0
93 40 0
-93 -40 0
94 92 0
-94 -92 0
56 61 0
-56 -61 0
115 140 0
-115 -140 0
84 112 0
-84 -112 0
14 95 0
-14 -95 0
97 70 0
-97 -70 0
14 125 0
-14 -125 0
33 132 0
-33 -132 0
126 121 0
-126 -121 0
111 54 0
-111 -54 0
139 64 0
-139 -64 0
63 24 0
-63 -24 0
91 102 0
-91 -102 0
81 57 0
-81 -57 0
70 131 0
-70 -131 0
112 54 0
-112 -54 0
94 54 0
-94 -54 0
90 52 0
-90 -52 0
75 14 0
-75 -14 0
47 131 0
-47 -131 0
110 77 0
-110 -77 0
53 117 0
-53 -117 0
134 140 0
-134 -140 0
99 37 0
-99 -37 0
68 80 0
-68 -80 0
7 51 0
-7 -51 0
27 138 0
-27 -138 0
104 40 0
-104 -40 0
139 128 0
-139 -128 0
106 132 0
-106 -132 0
27 51 0
-27 -51 0
44 98 0
-44 -98 0
12 8 0
-12 -8 0
4 123 0
-4 -123 0
135 70 0
-135 -70 0
50 114 0
-50 -114 0
119 105 0
-119 -105 0
66 52 0
-66 -52 0
94 108 0
-94 -108 0
113 30 0
-113 -30 0
68 39 0
-68 -39 0
136 80 0
-136 -80 0
63 54 0
-63 -54 0
21 61 0
-21 -61 0
17 44 0
-17 -44 0
114 57 0
-114 -57 0
48 102 0
-48 -102 0
98 95 0
-98 -95 0
12 138 0
-12 -138 0
14 78 0
-14 -78 0
138 8 0
-138 -8 0
68 130 0
-68 -130 0
93 11 0
-93 -11 0
40 132 0
-40 -132 0
96 97 0
-96 -97 0
126 81 0
-126 -81 0
72 139 0
-72 -139 0
7 66 0
-7 -66 0
43 107 0
-43 -107 0
127 99 0
-127 -99 0
94 101 0
-94 -101 0
2 95 0
-2 -95 0
52 74 0
-52 -74 0
17 120 0
-17 -120 0
19 77 0
-19 -77 0
30 98 0
-30 -98 0
118 59 0
-118 -59 0
101 8 0
-101 -8 0
118 22 0
-118 -22 0
4 104 0
-4 -104 0
56 6 0
-56 -6 0
79 46 0
-79 -46 0
117 57 0
-117 -57 0
103 50 0
-103 -50 0
56 64 0
-56 -64 0
11 69 0
-11 -69 0
60 137 0
-60 -137 0
110 59 0
-110 -59 0
68 121 0
-68 -121 0
